644,292
735,300
677,377
415,448
351,406
245,89
782,93
817,139
910,91
927,67
1081,202
808,279
751,309
681,346
545,673
417,770
491,780
415,599
387,257
237,336
681,526
729,371
795,369
681,706
681,946
505,648
681,136
891,406
937,489
921,406
1155,481
1006,355
